1243
500000
332259
330500
330500
330500
330500
330500
330500
330500
330500
330500
330500
330500
330500
330500
330500
330500
330045
330045
328613
310512
310512
310512
310512
310512
310512
310512
310512
310512
310512
310512
310512
310512
310512
310512
310512
309281
309281
309281
309281
309281
309281
309281
306064
306064
306064
306064
306064
305623
305623
304725
304725
304725
304725
304725
304725
304725
304725
304725
304725
304725
304725
304725
304725
304725
304725
302724
302724
302724
302724
302724
302724
302724
302724
297293
297293
297293
297293
297293
297293
297293
297293
297293
297293
297293
297293
297293
297293
297293
297293
288094
288094
288094
288094
288094
288094
288094
288094
288094
288094
288094
288094
288094
288094
288094
288094
288094
288094
287346
287346
287346
287346
287346
287346
287346
287346
286331
286331
286331
286331
286331
286331
286331
286331
286331
286331
284830
284830
283888
283888
283888
283888
283888
283888
283888
283888
283888
283888
283888
283888
283888
283888
283888
283888
283888
283888
283888
283543
283543
283543
283543
283543
283543
283475
283475
283475
283475
283128
283128
283128
283128
283128
283128
283128
283128
283128
283128
281880
281880
281880
281880
281880
281880
281880
281880
281188
271012
271012
267730
267730
267730
267730
267730
267730
267730
267107
267107
267107
267107
267107
267107
267107
267107
267107
267107
267107
264360
264360
264360
264360
264360
264360
264360
264360
264360
264360
264360
264360
261096
261096
261096
261096
261096
261096
261096
261096
261096
261096
261096
261096
261096
261096
259807
259807
259807
259807
259807
259807
259807
259807
259807
259807
259807
259807
259807
259807
259807
259807
259807
259807
259807
258931
258931
258931
258931
258931
258931
258931
258931
258931
258871
258871
258871
258871
258871
258871
258871
258871
258871
258871
258871
258871
258871
258871
258871
258871
258871
258871
258871
258871
258268
258268
258268
254586
254586
252652
252652
244127
244127
244127
244127
243938
243938
243938
243938
243530
243530
243530
243530
243530
243530
243530
238881
238881
238881
238881
238881
237533
237533
237533
237533
237533
237533
237533
237533
237533
237533
237533
237533
225895
225895
225895
225895
225895
225895
225895
225895
225895
225895
225895
225895
225895
220754
220754
220754
220754
220754
220754
220754
220754
220754
220472
220472
220472
220472
220472
220472
220472
217046
214839
214839
214839
214839
214839
214839
214839
214839
214454
214454
214454
214454
214454
214454
212124
208258
208258
207388
207388
207388
207388
207388
207388
207388
207388
207388
207388
207388
207388
203566
203566
203566
203566
203566
203566
203566
203566
203566
203566
203566
203566
203566
203566
203566
203566
202916
202916
202916
202916
202916
202916
202916
202916
202916
202916
202916
202916
201174
201174
201174
201174
201174
201174
201174
201174
201174
201174
201174
201174
201174
201174
200830
200830
200830
200830
200830
197545
197545
192366
192366
192366
192366
192042
192042
192042
192042
192042
192042
192042
192042
192042
192042
186300
186300
186300
186300
186300
186300
186300
186300
186300
186300
186300
186300
186300
186300
185037
184531
184531
184531
184531
184531
184531
184531
184531
184531
184531
184531
184531
184531
180345
180345
180345
180345
180345
180345
180345
180345
180345
180345
180345
180345
180345
180345
180345
179946
179946
179946
179946
179946
179946
179946
179946
179946
179946
178116
178116
178116
178116
178116
178116
178116
178116
178116
178116
178116
178116
178116
178116
178116
178116
178116
177789
177789
177789
174008
174008
174008
174008
174008
174008
174008
174008
174008
174008
174008
174008
174008
174008
174008
173673
173673
173673
173673
173673
173673
173673
173673
173673
173673
173673
173673
173673
173673
173673
173673
169550
169550
169550
169550
169550
169550
169550
169550
169550
169550
169550
169550
169550
163391
163391
163391
163391
163391
163391
163391
163391
163391
160415
160415
160415
160415
160415
160415
160415
160415
160415
160415
160415
160415
160415
160415
160415
160415
160415
160415
160415
159375
159375
159375
159375
159375
159179
159179
159179
159179
159179
159179
159179
159179
159179
159179
159179
159179
159179
159179
157436
157436
157436
157436
157436
157436
149366
149366
149366
149366
149366
149366
149366
149366
147546
147546
147546
147546
147546
147546
147546
147546
147546
147546
147546
147546
144791
144791
144791
144791
144791
144791
144791
144791
140159
140159
140159
140159
140159
140159
140159
140159
140159
140159
140159
140159
140159
140159
140159
140159
134747
134747
134747
134747
134747
134747
134747
134747
134747
134747
134747
134747
134747
134747
134747
134747
134747
134747
134747
131998
131998
131998
131998
131998
131998
131998
131998
131998
131998
131998
125707
125707
125707
125707
125707
125707
125707
125707
125707
125707
125707
125707
125707
125707
125707
125707
125707
125707
125707
123932
123932
123932
123932
123932
123932
123932
123932
123932
123932
122861
122861
122861
122861
122861
122861
122861
122861
122861
122861
122861
122861
122861
121473
121473
121473
121473
121473
121473
121473
121473
121473
121473
121473
121473
121473
121473
121473
121473
121473
121473
119971
119971
119971
119971
119971
119971
118061
118061
118061
118061
118061
118061
118061
118061
118061
118061
118061
118061
118061
118061
118061
118061
118061
118061
117684
117684
117684
117684
117684
117684
117684
115046
115046
115046
115046
115046
115046
115046
115046
115046
115046
115046
115046
115046
115046
115046
115046
115046
115046
115046
115046
112525
112525
112525
112525
108973
108973
108973
108973
108973
108973
108973
108973
108973
108973
108973
108973
108973
108973
105342
105342
105342
105342
105342
105342
105342
105342
105342
105342
105342
105342
105342
105342
105342
105342
105342
104298
104298
104298
104298
104298
104298
104298
104298
104298
104083
104083
104083
104083
104083
104083
104083
104083
104083
104083
104083
99957
99957
97733
97733
97733
97733
97733
97733
97733
97733
97733
97733
97733
97733
97733
97733
97733
97733
97733
97733
97733
96324
96324
96324
96324
96324
96324
96324
96324
96324
96324
93871
93871
93871
93871
93871
93871
93871
93871
93871
93871
93871
93871
93871
93871
93871
93871
93278
93278
93278
93278
92058
92058
92058
92058
91241
91241
91241
91241
91241
91241
86796
86796
86796
86796
86796
86796
86796
86796
86796
86796
86796
85489
85489
85489
85489
85062
85062
85062
85062
85062
85062
85062
85062
85062
85062
85062
85062
85062
85062
85062
85062
85062
84594
84594
84594
84594
84594
84594
84594
84594
83757
83757
83757
83757
83757
83757
83757
83757
83757
83757
83757
83757
80437
80437
80437
80437
80437
80437
80437
78875
78875
78875
78875
78875
78875
78875
78875
78875
78875
78875
78875
71336
71336
71336
71336
71336
71336
71336
71336
71336
71336
71336
71336
71336
71336
71336
71336
71336
71336
71336
71336
70391
70391
70391
70391
70391
69854
69854
69854
69854
69854
69854
69854
69854
69854
69854
69854
69854
69854
69854
69854
69854
67183
67183
67183
67183
63567
63567
63567
63567
63567
63567
63567
63567
63567
61078
61078
61078
61078
61078
61078
61078
61078
61078
61078
61078
61078
61078
61078
61078
61078
60878
60878
60878
60878
60878
60878
60878
60878
60878
60878
60878
60878
60878
60878
60878
60878
60878
60878
60878
60125
60125
60125
60125
60125
60125
60125
60125
60125
60125
56536
53563
53563
53563
53563
53563
53563
53563
53563
53563
53563
52623
52623
52623
52623
52623
52623
52623
52623
52623
52623
52623
52623
52623
52623
52623
52623
52623
48515
48515
48515
48515
48515
48515
48515
48515
48515
48515
48515
48486
48486
48486
48486
48486
48091
48091
48091
48091
48091
48091
47698
47698
47698
47698
47698
47698
47698
47698
47698
47698
47698
47698
47698
33725
33725
33725
33725
33725
33725
33725
33725
33413
33413
33413
33413
33413
33413
33413
31212
31212
31212
31212
31212
31212
31212
31212
31212
31212
31212
31212
31212
31212
24702
24702
24702
24702
24702
24702
24702
24702
24702
24702
24702
24702
24702
24702
24702
24702
24702
24702
23203
23203
23203
23203
23203
23203
23203
23203
23203
23203
22944
22944
22944
22944
22944
22944
22944
22944
22944
22944
22841
22841
22841
22841
22841
22841
22841
22841
12510
12510
12510
12510
12510
12510
12510
12510
12510
12510
12510
12510
12510
12510
12457
12457
12457
12457
12457
12457
12457
12457
12457
12457
12457
12457
12457
12457
12457
12457
12457
12457
12457
12457
